
Gurobi 9.0.2 (linux64) logging started Fri Jun  5 18:45:12 2020

Changed value of parameter LogFile to gurobi_logs/2020-06-05_18:45:01-rproblem9_16_weeks_mode=feasibility_sdp_reduce.log
   Prev:   Default: 
Parameter MIPFocus unchanged
   Value: 0  Min: 0  Max: 3  Default: 0
Parameter SolutionLimit unchanged
   Value: 2000000000  Min: 1  Max: 2000000000  Default: 2000000000
Parameter LogToConsole unchanged
   Value: 1  Min: 0  Max: 1  Default: 1
Changed value of parameter TimeLimit to 10000.0
   Prev: inf  Min: 0.0  Max: inf  Default: inf
Gurobi Optimizer version 9.0.2 build v9.0.2rc0 (linux64)
Optimize a model with 22368 rows, 23488 columns and 71504 nonzeros
Model fingerprint: 0x92943125
Variable types: 416 continuous, 23072 integer (1120 binary)
Coefficient statistics:
  Matrix range     [2e-01, 1e+03]
  Objective range  [2e-01, 5e+00]
  Bounds range     [1e+00, 1e+00]
  RHS range        [1e+00, 6e+00]
Presolve removed 22365 rows and 23483 columns
Presolve time: 0.03s
Presolved: 3 rows, 5 columns, 8 nonzeros
Variable types: 0 continuous, 5 integer (4 binary)
Found heuristic solution: objective 1752.0000000

Explored 0 nodes (0 simplex iterations) in 0.05 seconds
Thread count was 24 (of 48 available processors)

Solution count 1: 1752 

Optimal solution found (tolerance 1.00e-04)
Best objective 1.752000000000e+03, best bound 1.752000000000e+03, gap 0.0000%

Gurobi 9.0.2 (linux64) logging started Fri Jun  5 18:45:22 2020

Changed value of parameter LogFile to gurobi_logs/2020-06-05_18:45:01-rproblem9_16_weeks_mode=feasibility_sdp_reduce.log
   Prev:   Default: 
Parameter MIPFocus unchanged
   Value: 0  Min: 0  Max: 3  Default: 0
Parameter SolutionLimit unchanged
   Value: 2000000000  Min: 1  Max: 2000000000  Default: 2000000000
Parameter LogToConsole unchanged
   Value: 1  Min: 0  Max: 1  Default: 1
Changed value of parameter TimeLimit to 10000.0
   Prev: inf  Min: 0.0  Max: inf  Default: inf
Gurobi Optimizer version 9.0.2 build v9.0.2rc0 (linux64)
Optimize a model with 322692 rows, 207474 columns and 8336338 nonzeros
Model fingerprint: 0x59d267a8
Variable types: 18 continuous, 207456 integer (186624 binary)
Coefficient statistics:
  Matrix range     [2e-01, 2e+02]
  Objective range  [1e+00, 1e+00]
  Bounds range     [1e+00, 1e+00]
  RHS range        [1e+00, 6e+02]
Presolve removed 154450 rows and 95858 columns
Presolve time: 2.11s

Explored 0 nodes (0 simplex iterations) in 3.38 seconds
Thread count was 1 (of 48 available processors)

Solution count 0

Model is infeasible
Best objective -, best bound -, gap -
